c File: instances/34_0.35_1.col
c
c Description: Random graph of size 34 vertices and P(0.35) of edges between any two vertices.
p col 34 561
e 1 3
e 1 5
e 1 12
e 1 14
e 1 16
e 1 17
e 1 21
e 1 26
e 1 27
e 1 29
e 2 5
e 2 6
e 2 7
e 2 10
e 2 16
e 2 20
e 2 21
e 2 28
e 2 30
e 3 5
e 3 8
e 3 9
e 3 10
e 3 13
e 3 17
e 3 18
e 3 20
e 3 21
e 3 23
e 3 29
e 3 30
e 3 31
e 3 32
e 3 34
e 4 7
e 4 10
e 4 11
e 4 13
e 4 15
e 4 16
e 4 22
e 4 23
e 4 26
e 4 27
e 4 30
e 4 32
e 5 11
e 5 14
e 5 16
e 5 17
e 5 18
e 5 19
e 5 21
e 5 24
e 5 26
e 5 33
e 6 8
e 6 10
e 6 11
e 6 13
e 6 14
e 6 18
e 6 26
e 6 28
e 6 30
e 6 31
e 6 32
e 7 9
e 7 11
e 7 12
e 7 13
e 7 20
e 7 21
e 7 27
e 7 32
e 7 34
e 8 9
e 8 22
e 8 29
e 8 34
e 9 11
e 9 14
e 9 16
e 9 22
e 9 25
e 9 27
e 9 28
e 9 31
e 9 34
e 10 15
e 10 16
e 10 18
e 10 19
e 10 21
e 10 24
e 10 25
e 10 26
e 10 27
e 10 32
e 10 34
e 11 14
e 11 15
e 11 17
e 11 20
e 11 21
e 11 24
e 11 25
e 11 30
e 11 32
e 12 14
e 12 17
e 12 21
e 12 22
e 12 24
e 12 27
e 12 30
e 12 34
e 13 15
e 13 22
e 13 33
e 14 16
e 14 22
e 14 26
e 14 27
e 14 29
e 15 16
e 15 18
e 15 19
e 15 20
e 15 21
e 15 27
e 15 29
e 15 30
e 16 17
e 16 18
e 16 22
e 16 24
e 16 25
e 16 27
e 16 29
e 16 31
e 16 33
e 17 19
e 17 26
e 17 27
e 17 31
e 17 33
e 17 34
e 18 22
e 18 25
e 18 26
e 18 29
e 18 30
e 18 31
e 18 32
e 18 33
e 19 21
e 19 24
e 19 27
e 19 28
e 19 32
e 19 34
e 20 24
e 20 27
e 20 31
e 20 33
e 21 22
e 21 26
e 21 27
e 21 29
e 21 30
e 21 31
e 22 30
e 22 31
e 22 33
e 23 24
e 23 29
e 23 31
e 24 26
e 24 29
e 25 28
e 25 30
e 25 32
e 25 33
e 25 34
e 26 30
e 26 32
e 27 29
e 27 30
e 27 31
e 28 33
e 28 34
e 29 30
e 29 34
e 30 31
e 30 34
e 31 32
e 32 33
e 32 34